NAME: dj38
COMMENT : 38 locations in Djibouti
COMMENT : Derived from National Imagery and Mapping Agency data
COMMENT : This file is a corrected version of dj89, where duplications
COMMENT:  have been removed.  Thanks to Jay Muthuswamy and others for
COMMENT:  requesting data sets without duplications.
TYPE: TSP
DIMENSION: 9
EDGE_WEIGHT_TYPE: EUC_2D
NODE_COORD_SECTION
1 0  0
2 0  1
3 0  2
4 1  2
5 10 2
6 10 3
7 10 4
8 10 10
9 20 10










